24910 12090 1630
19809 21191 2123
13167 22833 1842
19222 19778 2239
18163 21837 2151
14199 22801 1912
20267 20733 2155
18978 21022 2215
18408 20592 2235
24924 11076 1550
23048 17952 2063
20944 20056 2056
18304 21696 2190
21131 19869 2147
18008 21992 2107
22459 17541 2116
19778 21222 2071
17281 21719 2200
19427 20573 2223
17905 22095 2056
24790 14210 1749
21812 17188 2157
17182 21818 2190
20635 19365 2222
24855 13145 1664
20025 20975 2145
23194 16806 2055
23401 17599 1951
16558 22442 2035
15308 22692 2037
16556 22444 1988
20063 19937 2228
17901 22099 2031
17932 22068 2083
15306 22694 1990
24296 14704 1896
15463 22537 2077
16806 22194 2139
24360 15640 1862
16978 22022 2168
21703 19297 2141
16618 22382 2090
21122 18878 2198
24426 15574 1843
24500 15500 1816
